============================[ Problem Statistics ]=============================|                                                                             ||  Number of variables:          4242                                         ||  Number of clauses:            9979                                         ||  Parse time:                   0.37 s                                       ||                                                                             |============================[ Search Statistics ]==============================| Conflicts |          ORIGINAL         |          LEARNT          | Progress ||           |    Vars  Clauses Literals |    Limit  Clauses Lit/Cl |          |===============================================================================|       100 |    1591     6184   586145 |     2267      100     53 | 62.501 % |===============================================================================restarts              : 3conflicts             : 213            (378 /sec)decisions             : 478            (0.00 % random) (848 /sec)propagations          : 11677          (20704 /sec)conflict literals     : 15334          (95.08 % deleted)CPU time              : 0.564 sSATISFIABLE